Maximize
x1 + x2 + x3 + x4 + x5 + x6 + x7 + x8
 + x9 + x10 + x11 + x12 + x13 + x14 + x15 + x16
 + x17 + x18 + x19 + x20 + x21 + x22 + x23 + x24
 + x25 + x26 + x27 + x28 + x29 + x30 + x31 + x32
 + x33 + x34 + x35 + x36 + x37 + x38 + x39 + x40
 + x41 + x42 + x43 + x44 + x45 + x46 + x47 + x48
 + x49 + x50 + x51 + x52 + x53 + x54 + x55 + x56
 + x57 + x58 + x59 + x60 + x61 + x62 + x63 + x64
 + x65 + x66 + x67 + x68 + x69 + x70 + x71 + x72
 + x73 + x74 + x75 + x76 + x77 + x78 + x79 + x80
 + x81 + x82 + x83 + x84 + x85 + x86 + x87 + x88
 + x89 + x90 + x91 + x92 + x93 + x94 + x95 + x96
 + x97 + x98 + x99 + x100 + x101 + x102 + x103 + x104
 + x105 + x106 + x107 + x108 + x109 + x110 + x111 + x112
 + x113 + x114 + x115 + x116 + x117 + x118 + x119 + x120
 + x121 + x122 + x123 + x124 + x125 + x126 + x127 + x128
 + x129 + x130 + x131 + x132 + x133 + x134 + x135 + x136
 + x137 + x138 + x139 + x140 + x141 + x142 + x143 + x144
 + x145 + x146 + x147 + x148 + x149 + x150 + x151 + x152
 + x153 + x154 + x155 + x156 + x157 + x158 + x159 + x160
 + x161 + x162 + x163 + x164 + x165 + x166 + x167 + x168
 + x169 + x170 + x171
subject to
c1: x1 + x2 + x46 + x69 + x39 + x36 + x38 + x3 <= 1
c2: x1 + x4 + x146 + x169 + x139 + x136 + x140 + x3 <= 1
c3: x1 + x5 + x45 + x47 + x46 + x10 + x39 + x3 <= 1
c4: x1 + x6 + x43 + x143 + x18 + x7 + x10 <= 1
c5: x1 + x9 + x145 + x146 + x143 + x138 + x139 + x7 + x136 + x10 + x2 + x3 <= 1
c6: x1 + x11 + x147 + x47 + x18 + x7 + x10 <= 1
c7: x1 + x28 + x66 + x166 + x32 + x29 + x18 <= 1
c8: x1 + x31 + x68 + x168 + x32 + x29 + x18 <= 1
c9: x1 + x33 + x70 + x170 + x32 + x29 + x18 <= 1
c10: x1 + x35 + x43 + x66 + x77 + x36 + x39 <= 1
c11: x1 + x40 + x69 + x70 + x66 + x77 + x36 + x39 <= 1
c12: x1 + x42 + x65 + x77 + x36 + x35 <= 1
c13: x1 + x135 + x166 + x165 + x77 + x136 <= 1
c14: x1 + x142 + x146 + x143 + x77 + x136 <= 1
c15: x2 + x4 + x48 + x71 + x41 + x39 + x5 + x3 <= 1
c16: x2 + x8 + x21 + x45 + x44 + x9 <= 1
c17: x2 + x12 + x148 + x48 + x21 + x9 + x10 <= 1
c18: x2 + x29 + x169 + x168 + x34 + x31 + x21 + x32 <= 1
c19: x2 + x30 + x68 + x67 + x38 + x31 + x37 <= 1
c20: x2 + x43 + x80 + x46 + x45 + x48 + x38 + x39 <= 1
c21: x2 + x66 + x71 + x69 + x68 + x80 + x38 + x39 <= 1
c22: x2 + x137 + x144 + x167 + x80 + x138 <= 1
c23: x2 + x141 + x171 + x148 + x139 + x80 + x138 <= 1
c24: x2 + x166 + x171 + x168 + x169 + x21 + x31 + x32 <= 1
c25: x3 + x11 + x22 + x147 + x47 + x12 + x7 + x10 <= 1
c26: x3 + x29 + x170 + x70 + x22 + x33 + x34 + x32 <= 1
c27: x3 + x31 + x69 + x71 + x41 + x68 + x34 + x32 + x38 + x39 + x5 + x2 <= 1
c28: x3 + x40 + x81 + x46 + x47 + x43 + x48 + x39 <= 1
c29: x3 + x66 + x81 + x70 + x71 + x69 + x68 + x39 <= 1
c30: x3 + x141 + x147 + x170 + x140 + x81 + x139 + x136 <= 1
c31: x3 + x148 + x145 + x146 + x147 + x143 + x22 + x10 <= 1
c32: x3 + x166 + x168 + x171 + x169 + x170 + x22 + x32 <= 1
c33: x4 + x7 + x23 + x46 + x11 + x47 + x12 + x10 <= 1
c34: x4 + x8 + x23 + x44 + x144 + x11 <= 1
c35: x4 + x29 + x23 + x169 + x33 + x69 + x34 + x32 <= 1
c36: x4 + x30 + x167 + x67 + x33 + x23 <= 1
c37: x4 + x36 + x82 + x70 + x47 + x40 + x41 + x39 <= 1
c38: x4 + x37 + x82 + x44 + x67 + x40 <= 1
c39: x4 + x43 + x82 + x46 + x48 + x47 + x40 + x39 <= 1
c40: x4 + x66 + x71 + x82 + x70 + x69 + x40 + x39 <= 1
c41: x4 + x137 + x144 + x167 + x140 + x82 <= 1
c42: x4 + x141 + x171 + x148 + x140 + x82 + x139 <= 1
c43: x4 + x143 + x146 + x147 + x148 + x11 + x23 + x10 <= 1
c44: x4 + x166 + x171 + x169 + x170 + x33 + x140 + x139 + x32 + x3 <= 1
c45: x5 + x6 + x26 + x42 + x142 + x12 <= 1
c46: x5 + x9 + x26 + x145 + x45 + x12 + x10 <= 1
c47: x5 + x11 + x26 + x146 + x46 + x9 + x12 + x10 <= 1
c48: x5 + x28 + x65 + x165 + x26 + x34 <= 1
c49: x5 + x33 + x71 + x171 + x26 + x31 + x34 + x32 <= 1
c50: x5 + x35 + x85 + x42 + x65 + x41 <= 1
c51: x5 + x40 + x85 + x48 + x71 + x38 + x41 + x39 <= 1
c52: x5 + x70 + x85 + x170 <= 1
c53: x5 + x135 + x85 + x142 + x165 + x141 <= 1
c54: x5 + x138 + x168 + x145 + x85 + x141 + x139 <= 1
c55: x5 + x140 + x169 + x170 + x171 + x85 + x141 + x139 <= 1
c56: x5 + x147 + x145 + x148 + x146 + x26 + x12 + x10 <= 1
c57: x6 + x13 + x55 + x63 + x51 + x50 + x14 + x42 <= 1
c58: x6 + x15 + x155 + x163 + x151 + x152 + x142 + x14 <= 1
c59: x6 + x17 + x54 + x154 + x18 + x13 + x7 + x14 <= 1
c60: x6 + x19 + x56 + x156 + x15 + x18 + x28 + x14 <= 1
c61: x6 + x25 + x62 + x162 + x26 + x12 + x13 + x14 <= 1
c62: x6 + x27 + x64 + x164 + x15 + x26 + x12 + x14 <= 1
c63: x6 + x35 + x89 + x51 + x48 + x43 + x42 <= 1
c64: x6 + x36 + x55 + x89 + x43 + x42 <= 1
c65: x6 + x41 + x63 + x89 + x48 + x42 <= 1
c66: x6 + x52 + x56 + x64 + x89 + x51 + x42 <= 1
c67: x6 + x135 + x151 + x89 + x143 + x148 + x142 <= 1
c68: x6 + x136 + x155 + x89 + x143 + x142 <= 1
c69: x6 + x141 + x163 + x89 + x148 + x142 <= 1
c70: x6 + x150 + x154 + x162 + x151 + x89 + x142 <= 1
c71: x7 + x15 + x156 + x155 + x19 + x152 + x151 + x143 + x142 + x18 + x14 + x6 <= 1
c72: x7 + x21 + x58 + x59 + x54 + x55 + x17 + x45 + x46 + x22 + x43 + x9 + x10 + x18 <= 1
c73: x7 + x29 + x60 + x160 + x19 + x23 + x22 + x18 <= 1
c74: x7 + x35 + x93 + x51 + x42 + x43 <= 1
c75: x7 + x36 + x93 + x55 + x47 + x45 + x46 + x43 <= 1
c76: x7 + x38 + x93 + x58 + x45 + x46 + x43 <= 1
c77: x7 + x39 + x93 + x59 + x47 + x45 + x46 + x43 <= 1
c78: x7 + x40 + x60 + x93 + x47 + x46 + x43 <= 1
c79: x7 + x50 + x58 + x93 + x54 + x55 + x43 <= 1
c80: x7 + x52 + x60 + x56 + x93 + x55 + x43 <= 1
c81: x7 + x135 + x93 + x151 + x143 + x142 <= 1
c82: x7 + x140 + x160 + x93 + x146 + x147 + x143 <= 1
c83: x7 + x150 + x158 + x154 + x155 + x17 + x29 + x18 <= 1
c84: x7 + x159 + x158 + x160 + x155 + x146 + x93 + x143 <= 1
c85: x8 + x10 + x62 + x64 <= 1
c86: x8 + x16 + x57 + x157 + x20 + x24 + x11 + x23 <= 1
c87: x8 + x17 + x53 + x153 + x19 + x16 + x20 + x30 <= 1
c88: x8 + x25 + x61 + x161 + x27 + x24 + x20 + x30 <= 1
c89: x8 + x37 + x95 + x57 + x44 + x47 + x45 <= 1
c90: x8 + x38 + x95 + x58 + x44 + x45 <= 1
c91: x8 + x40 + x60 + x95 + x44 + x47 <= 1
c92: x8 + x54 + x62 + x95 + x58 + x57 + x44 + x45 <= 1
c93: x8 + x56 + x156 + x95 <= 1
c94: x8 + x137 + x157 + x95 + x144 + x145 + x147 <= 1
c95: x8 + x138 + x158 + x144 + x95 + x145 <= 1
c96: x8 + x140 + x160 + x144 + x95 + x147 <= 1
c97: x8 + x154 + x162 + x158 + x157 + x144 + x145 + x95 <= 1
c98: x8 + x164 + x64 + x27 + x24 + x11 + x20 + x23 <= 1
c99: x9 + x16 + x53 + x153 + x31 + x21 + x17 + x20 <= 1
c100: x9 + x24 + x61 + x161 + x25 + x21 + x31 + x20 <= 1
c101: x9 + x36 + x96 + x55 + x45 + x46 + x43 <= 1
c102: x9 + x37 + x96 + x57 + x44 + x45 <= 1
c103: x9 + x38 + x96 + x58 + x48 + x45 + x46 + x43 <= 1
c104: x9 + x39 + x96 + x59 + x48 + x45 + x46 + x43 <= 1
c105: x9 + x41 + x63 + x96 + x48 + x45 + x46 <= 1
c106: x9 + x62 + x63 + x96 + x59 + x58 + x48 + x45 + x46 <= 1
c107: x9 + x137 + x96 + x157 + x144 + x145 <= 1
c108: x9 + x141 + x163 + x96 + x146 + x145 + x148 <= 1
c109: x9 + x154 + x159 + x158 + x162 + x96 + x157 + x145 <= 1
c110: x9 + x155 + x159 + x163 + x158 + x96 + x146 + x145 <= 1
c111: x10 + x19 + x159 + x156 + x160 + x155 + x147 + x146 + x143 + x11 + x22 + x23 + x18 + x7 <= 1
c112: x10 + x25 + x163 + x63 + x27 + x32 + x26 + x22 <= 1
c113: x10 + x36 + x97 + x55 + x47 + x45 + x46 + x43 <= 1
c114: x10 + x38 + x97 + x58 + x48 + x45 + x46 + x43 <= 1
c115: x10 + x40 + x97 + x60 + x47 + x48 + x46 + x43 <= 1
c116: x10 + x41 + x97 + x63 + x47 + x48 + x45 + x46 <= 1
c117: x10 + x56 + x97 + x59 + x60 + x64 + x47 + x46 <= 1
c118: x10 + x140 + x97 + x160 + x148 + x146 + x147 + x143 <= 1
c119: x10 + x141 + x97 + x163 + x145 + x148 + x146 + x147 <= 1
c120: x10 + x154 + x158 + x159 + x162 + x97 + x145 + x146 <= 1
c121: x10 + x164 + x159 + x160 + x156 + x97 + x147 + x146 <= 1
c122: x11 + x33 + x53 + x61 + x60 + x57 + x20 + x23 <= 1
c123: x11 + x36 + x98 + x55 + x47 + x46 + x43 <= 1
c124: x11 + x37 + x98 + x57 + x44 + x47 <= 1
c125: x11 + x39 + x98 + x59 + x48 + x47 + x46 + x43 <= 1
c126: x11 + x40 + x98 + x60 + x44 + x47 + x46 <= 1
c127: x11 + x41 + x98 + x63 + x48 + x47 + x46 <= 1
c128: x11 + x56 + x98 + x53 + x57 + x60 + x44 + x47 <= 1
c129: x11 + x136 + x98 + x155 + x143 + x147 + x146 <= 1
c130: x11 + x137 + x98 + x157 + x144 + x147 <= 1
c131: x11 + x139 + x159 + x98 + x148 + x143 + x147 + x146 <= 1
c132: x11 + x140 + x160 + x98 + x144 + x147 + x146 <= 1
c133: x11 + x141 + x163 + x98 + x148 + x147 + x146 <= 1
c134: x11 + x153 + x161 + x160 + x157 + x98 + x144 + x147 <= 1
c135: x12 + x34 + x52 + x50 + x51 + x63 + x26 + x14 <= 1
c136: x12 + x35 + x101 + x51 + x42 + x48 <= 1
c137: x12 + x38 + x101 + x58 + x45 + x48 + x46 <= 1
c138: x12 + x39 + x101 + x59 + x48 + x45 + x47 + x46 <= 1
c139: x12 + x40 + x101 + x60 + x48 + x47 + x46 <= 1
c140: x12 + x41 + x101 + x63 + x42 + x48 + x46 <= 1
c141: x12 + x135 + x101 + x151 + x148 + x142 <= 1
c142: x12 + x138 + x101 + x158 + x145 + x148 + x146 <= 1
c143: x12 + x139 + x101 + x159 + x145 + x148 + x147 + x146 <= 1
c144: x12 + x140 + x101 + x160 + x148 + x146 + x147 <= 1
c145: x12 + x141 + x163 + x101 + x145 + x148 + x146 + x147 <= 1
c146: x12 + x150 + x152 + x151 + x163 + x101 + x148 + x142 <= 1
c147: x13 + x15 + x49 + x149 + x16 + x24 <= 1
c148: x13 + x21 + x62 + x71 + x25 + x63 + x48 + x26 <= 1
c149: x13 + x28 + x65 + x165 + x25 + x17 + x14 <= 1
c150: x13 + x29 + x66 + x166 + x28 + x17 + x18 + x14 <= 1
c151: x13 + x34 + x50 + x62 + x65 + x51 + x71 + x63 + x25 + x28 + x26 + x14 <= 1
c152: x13 + x43 + x104 + x54 + x66 + x50 + x55 + x51 <= 1
c153: x13 + x53 + x104 + x61 + x49 + x50 <= 1
c154: x13 + x142 + x104 + x162 + x150 + x165 + x154 + x151 <= 1
c155: x13 + x143 + x104 + x166 + x150 + x154 + x151 + x155 <= 1
c156: x13 + x148 + x171 + x104 + x162 + x163 + x150 + x151 <= 1
c157: x13 + x153 + x149 + x161 + x104 + x150 <= 1
c158: x14 + x22 + x164 + x64 + x27 + x34 + x26 + x12 <= 1
c159: x14 + x43 + x105 + x52 + x56 + x55 + x66 + x51 <= 1
c160: x14 + x48 + x105 + x64 + x52 + x71 + x63 + x51 <= 1
c161: x14 + x148 + x105 + x164 + x152 + x171 + x151 + x163 <= 1
c162: x14 + x150 + x105 + x152 + x165 + x166 + x155 + x151 <= 1
c163: x15 + x23 + x156 + x164 <= 1
c164: x15 + x29 + x156 + x152 + x165 + x151 + x166 + x155 + x19 + x28 + x18 + x14 <= 1
c165: x15 + x34 + x164 + x27 + x64 + x26 + x23 + x12 <= 1
c166: x15 + x42 + x106 + x52 + x65 + x64 + x56 + x51 <= 1
c167: x15 + x43 + x106 + x52 + x55 + x56 + x66 + x51 <= 1
c168: x15 + x48 + x106 + x52 + x64 + x63 + x71 + x51 <= 1
c169: x15 + x53 + x106 + x61 + x49 + x52 <= 1
c170: x15 + x148 + x106 + x164 + x152 + x163 + x171 + x151 <= 1
c171: x15 + x153 + x106 + x156 + x149 + x152 <= 1
c172: x15 + x161 + x164 + x27 + x149 + x152 + x24 <= 1
c173: x16 + x18 + x168 + x68 + x31 + x17 + x21 <= 1
c174: x16 + x33 + x167 + x67 + x19 + x30 + x20 + x23 <= 1
c175: x16 + x44 + x107 + x67 + x58 + x54 + x57 + x53 <= 1
c176: x16 + x45 + x107 + x68 + x58 + x54 + x57 + x53 <= 1
c177: x16 + x47 + x107 + x70 + x60 + x57 + x56 + x53 <= 1
c178: x16 + x50 + x107 + x58 + x54 + x53 <= 1
c179: x16 + x52 + x107 + x49 + x50 + x53 <= 1
c180: x16 + x144 + x107 + x167 + x158 + x157 + x160 + x153 <= 1
c181: x16 + x145 + x168 + x107 + x158 + x154 + x157 + x153 <= 1
c182: x16 + x147 + x170 + x107 + x156 + x157 + x160 + x153 <= 1
c183: x16 + x150 + x158 + x107 + x154 + x153 <= 1
c184: x16 + x152 + x160 + x107 + x156 + x153 <= 1
c185: x17 + x32 + x169 + x69 + x25 + x31 + x21 + x22 <= 1
c186: x17 + x42 + x108 + x54 + x55 + x65 + x50 + x51 <= 1
c187: x17 + x44 + x108 + x67 + x58 + x57 + x54 + x53 <= 1
c188: x17 + x49 + x108 + x149 <= 1
c189: x17 + x142 + x108 + x154 + x155 + x151 + x150 + x165 <= 1
c190: x17 + x143 + x108 + x159 + x158 + x154 + x155 + x166 <= 1
c191: x17 + x144 + x108 + x167 + x158 + x157 + x154 + x153 <= 1
c192: x17 + x145 + x108 + x168 + x159 + x158 + x157 + x154 <= 1
c193: x17 + x146 + x169 + x108 + x159 + x158 + x154 + x155 <= 1
c194: x18 + x26 + x59 + x69 + x70 + x68 + x32 + x22 <= 1
c195: x18 + x42 + x109 + x54 + x55 + x56 + x65 + x51 <= 1
c196: x18 + x50 + x109 + x58 + x66 + x54 + x55 + x43 <= 1
c197: x18 + x52 + x109 + x60 + x55 + x56 + x66 + x43 <= 1
c198: x18 + x145 + x109 + x168 + x159 + x158 + x154 + x155 <= 1
c199: x18 + x169 + x109 + x170 + x168 + x159 + x155 + x166 <= 1
c200: x19 + x27 + x59 + x69 + x70 + x60 + x33 + x32 + x23 + x22 <= 1
c201: x19 + x42 + x110 + x55 + x56 + x52 + x65 + x51 <= 1
c202: x19 + x43 + x110 + x59 + x60 + x55 + x56 + x66 <= 1
c203: x19 + x44 + x110 + x67 + x57 + x56 + x60 + x53 <= 1
c204: x19 + x46 + x110 + x69 + x59 + x55 + x56 + x60 <= 1
c205: x19 + x47 + x110 + x70 + x57 + x59 + x60 + x56 <= 1
c206: x19 + x49 + x110 + x149 <= 1
c207: x19 + x144 + x110 + x167 + x160 + x156 + x157 + x153 <= 1
c208: x19 + x169 + x110 + x170 + x167 + x160 + x156 <= 1
c209: x20 + x22 + x62 + x162 + x25 + x31 + x21 + x9 <= 1
c210: x20 + x44 + x111 + x61 + x62 + x64 + x67 + x57 <= 1
c211: x20 + x45 + x111 + x58 + x68 + x62 + x61 + x57 <= 1
c212: x20 + x47 + x111 + x70 + x64 + x61 + x57 + x60 <= 1
c213: x20 + x54 + x111 + x58 + x62 + x67 + x68 + x57 <= 1
c214: x20 + x56 + x111 + x64 + x67 + x57 + x70 + x60 <= 1
c215: x20 + x144 + x111 + x164 + x161 + x162 + x167 + x157 <= 1
c216: x20 + x145 + x111 + x168 + x158 + x161 + x162 + x157 <= 1
c217: x20 + x147 + x111 + x170 + x160 + x164 + x161 + x157 <= 1
c218: x20 + x154 + x111 + x168 + x158 + x162 + x157 + x167 <= 1
c219: x20 + x156 + x111 + x164 + x160 + x170 + x157 + x167 <= 1
c220: x21 + x23 + x159 + x163 + x169 + x171 + x32 + x34 + x26 + x22 <= 1
c221: x21 + x30 + x58 + x62 + x68 + x54 + x67 + x57 + x31 + x20 <= 1
c222: x21 + x66 + x112 + x69 + x58 + x59 + x68 + x71 <= 1
c223: x21 + x143 + x112 + x158 + x159 + x154 + x155 + x166 <= 1
c224: x21 + x144 + x112 + x162 + x157 + x158 + x161 + x167 <= 1
c225: x21 + x145 + x112 + x168 + x158 + x162 + x163 + x159 <= 1
c226: x21 + x146 + x112 + x169 + x158 + x162 + x159 + x163 <= 1
c227: x22 + x48 + x113 + x62 + x63 + x64 + x59 + x71 <= 1
c228: x22 + x56 + x113 + x64 + x69 + x59 + x60 + x70 <= 1
c229: x22 + x66 + x113 + x68 + x55 + x54 + x58 + x59 + x69 <= 1
c230: x22 + x154 + x113 + x158 + x168 + x159 + x162 + x169 <= 1
c231: x23 + x43 + x114 + x59 + x55 + x60 + x56 + x46 + x47 <= 1
c232: x23 + x48 + x114 + x63 + x64 + x59 + x60 + x71 <= 1
c233: x23 + x66 + x114 + x59 + x69 + x70 + x55 + x60 + x56 <= 1
c234: x23 + x153 + x114 + x160 + x170 + x161 + x157 + x167 <= 1
c235: x23 + x166 + x114 + x160 + x171 + x170 + x159 + x169 <= 1
c236: x24 + x26 + x164 + x27 + x152 + x160 <= 1
c237: x24 + x33 + x164 + x27 + x170 + x157 + x161 + x160 + x167 + x30 + x20 + x23 <= 1
c238: x24 + x44 + x115 + x62 + x67 + x61 + x64 + x57 <= 1
c239: x24 + x45 + x115 + x62 + x68 + x58 + x61 + x57 <= 1
c240: x24 + x47 + x115 + x61 + x64 + x57 + x70 + x60 <= 1
c241: x24 + x50 + x115 + x49 + x62 + x61 <= 1
c242: x24 + x52 + x115 + x49 + x50 + x61 <= 1
c243: x24 + x144 + x115 + x164 + x162 + x161 + x157 + x167 <= 1
c244: x24 + x145 + x115 + x168 + x158 + x162 + x161 + x157 <= 1
c245: x24 + x147 + x115 + x164 + x170 + x161 + x160 + x157 <= 1
c246: x24 + x150 + x115 + x149 + x152 + x161 <= 1
c247: x25 + x42 + x116 + x62 + x65 + x50 + x63 + x51 <= 1
c248: x25 + x44 + x116 + x61 + x67 + x62 + x57 + x58 <= 1
c249: x25 + x45 + x116 + x59 + x62 + x63 + x68 + x58 <= 1
c250: x25 + x46 + x116 + x62 + x69 + x59 + x63 + x58 <= 1
c251: x25 + x49 + x116 + x149 <= 1
c252: x25 + x142 + x116 + x151 + x165 + x150 + x163 + x162 <= 1
c253: x25 + x144 + x116 + x158 + x161 + x162 + x157 + x167 <= 1
c254: x25 + x145 + x116 + x159 + x168 + x163 + x162 + x158 <= 1
c255: x25 + x146 + x116 + x169 + x163 + x159 + x162 + x158 <= 1
c256: x25 + x148 + x116 + x171 + x151 + x150 + x163 + x162 <= 1
c257: x26 + x47 + x117 + x64 + x59 + x63 + x70 + x60 <= 1
c258: x26 + x58 + x117 + x50 + x62 + x71 + x63 + x48 <= 1
c259: x26 + x150 + x117 + x151 + x165 + x152 + x171 + x163 <= 1
c260: x26 + x158 + x117 + x169 + x159 + x162 + x163 + x168 + x171 <= 1
c261: x26 + x170 + x117 + x164 + x163 + x169 + x159 + x171 + x160 <= 1
c262: x27 + x28 + x164 + x64 + x32 + x34 + x26 <= 1
c263: x27 + x42 + x118 + x65 + x52 + x51 + x64 + x63 <= 1
c264: x27 + x44 + x118 + x61 + x67 + x57 + x64 + x60 <= 1
c265: x27 + x46 + x118 + x59 + x64 + x69 + x63 + x60 <= 1
c266: x27 + x47 + x118 + x61 + x64 + x57 + x70 + x60 <= 1
c267: x27 + x48 + x118 + x52 + x51 + x64 + x71 + x63 <= 1
c268: x27 + x49 + x118 + x149 <= 1
c269: x27 + x142 + x118 + x151 + x152 + x164 + x165 + x163 <= 1
c270: x27 + x144 + x118 + x161 + x164 + x147 + x157 + x160 <= 1
c271: x27 + x146 + x118 + x159 + x169 + x164 + x163 + x160 <= 1
c272: x27 + x148 + x118 + x152 + x151 + x171 + x164 + x163 <= 1
c273: x28 + x35 + x121 + x135 <= 1
c274: x28 + x36 + x121 + x136 <= 1
c275: x28 + x41 + x121 + x35 + x36 + x65 <= 1
c276: x28 + x52 + x121 + x152 <= 1
c277: x28 + x54 + x121 + x154 <= 1
c278: x28 + x55 + x121 + x36 + x65 + x66 <= 1
c279: x28 + x141 + x121 + x136 + x135 + x165 <= 1
c280: x28 + x150 + x121 + x155 + x151 + x166 + x152 + x165 <= 1
c281: x28 + x162 + x121 + x62 <= 1
c282: x28 + x163 + x121 + x141 + x165 + x171 <= 1
c283: x29 + x35 + x125 + x135 <= 1
c284: x29 + x36 + x125 + x136 <= 1
c285: x29 + x38 + x125 + x138 <= 1
c286: x29 + x39 + x125 + x139 <= 1
c287: x29 + x40 + x125 + x140 <= 1
c288: x29 + x50 + x125 + x54 + x51 + x65 + x55 + x66 <= 1
c289: x29 + x52 + x125 + x152 <= 1
c290: x29 + x56 + x125 + x156 <= 1
c291: x29 + x58 + x125 + x59 + x68 + x54 + x69 + x55 + x66 <= 1
c292: x29 + x159 + x125 + x139 + x166 + x168 + x169 + x170 <= 1
c293: x30 + x32 + x138 + x140 <= 1
c294: x30 + x40 + x127 + x37 + x67 + x38 <= 1
c295: x30 + x56 + x127 + x156 <= 1
c296: x30 + x60 + x127 + x53 + x61 + x67 + x57 + x70 <= 1
c297: x30 + x64 + x127 + x61 + x62 + x67 + x57 <= 1
c298: x30 + x137 + x127 + x37 <= 1
c299: x30 + x154 + x127 + x153 + x156 + x167 + x157 <= 1
c300: x30 + x158 + x127 + x138 + x168 + x167 <= 1
c301: x30 + x162 + x127 + x161 + x164 + x167 + x157 <= 1
c302: x31 + x36 + x128 + x136 <= 1
c303: x31 + x55 + x128 + x155 <= 1
c304: x31 + x59 + x128 + x39 + x68 + x69 + x71 + x66 <= 1
c305: x31 + x63 + x128 + x41 + x68 + x69 + x71 <= 1
c306: x31 + x137 + x128 + x37 <= 1
c307: x31 + x138 + x128 + x137 + x139 + x168 <= 1
c308: x31 + x141 + x128 + x136 + x138 + x139 + x169 + x168 <= 1
c309: x31 + x154 + x128 + x153 + x155 + x158 + x168 <= 1
c310: x31 + x157 + x128 + x137 + x167 + x168 <= 1
c311: x31 + x159 + x128 + x139 + x166 + x171 + x169 + x168 <= 1
c312: x31 + x163 + x128 + x141 + x169 + x171 + x168 <= 1
c313: x32 + x36 + x129 + x136 <= 1
c314: x32 + x40 + x129 + x41 + x36 + x38 + x39 + x69 <= 1
c315: x32 + x54 + x129 + x62 + x68 + x58 + x59 + x69 <= 1
c316: x32 + x55 + x129 + x36 + x68 + x69 + x70 + x66 <= 1
c317: x32 + x56 + x129 + x156 <= 1
c318: x32 + x141 + x129 + x138 + x139 + x136 + x140 + x169 <= 1
c319: x32 + x154 + x129 + x156 + x155 + x166 + x159 + x169 <= 1
c320: x32 + x158 + x129 + x138 + x166 + x171 + x169 + x168 <= 1
c321: x32 + x160 + x129 + x156 + x164 + x170 + x169 + x159 <= 1
c322: x32 + x162 + x129 + x164 + x163 + x169 + x171 + x159 <= 1
c323: x33 + x36 + x130 + x136 <= 1
c324: x33 + x37 + x130 + x137 <= 1
c325: x33 + x39 + x130 + x37 + x40 + x70 <= 1
c326: x33 + x41 + x130 + x141 <= 1
c327: x33 + x55 + x130 + x53 + x60 + x56 + x70 <= 1
c328: x33 + x63 + x130 + x61 + x64 + x60 + x70 <= 1
c329: x33 + x66 + x130 + x69 + x71 + x40 + x39 + x70 <= 1
c330: x33 + x153 + x130 + x53 <= 1
c331: x33 + x155 + x130 + x156 + x153 + x170 + x160 <= 1
c332: x33 + x159 + x130 + x139 + x166 + x170 + x169 + x171 <= 1
c333: x33 + x163 + x130 + x161 + x164 + x170 + x160 <= 1
c334: x34 + x35 + x133 + x135 <= 1
c335: x34 + x40 + x133 + x140 <= 1
c336: x34 + x58 + x133 + x50 + x62 + x71 + x63 <= 1
c337: x34 + x59 + x133 + x51 + x62 + x64 + x71 + x63 <= 1
c338: x34 + x60 + x133 + x52 + x64 + x71 + x63 <= 1
c339: x34 + x138 + x133 + x139 + x140 + x141 + x169 + x171 <= 1
c340: x34 + x150 + x133 + x151 + x152 + x165 + x171 + x163 <= 1
c341: x34 + x158 + x133 + x138 + x168 + x169 + x171 <= 1
c342: x34 + x160 + x133 + x152 + x164 + x171 + x163 <= 1
c343: x34 + x162 + x133 + x151 + x165 + x150 + x171 + x163 <= 1
c344: x35 + x71 + x132 + x134 + x73 + x133 + x85 + x121 + x65 + x41 <= 1
c345: x35 + x72 + x92 + x100 + x88 + x73 + x89 + x135 <= 1
c346: x35 + x74 + x94 + x102 + x90 + x73 + x89 + x42 <= 1
c347: x35 + x76 + x124 + x92 + x77 + x72 + x73 + x135 <= 1
c348: x35 + x78 + x126 + x94 + x74 + x77 + x73 + x36 <= 1
c349: x35 + x84 + x100 + x132 + x72 + x85 + x73 + x135 <= 1
c350: x35 + x86 + x102 + x134 + x74 + x85 + x73 + x41 <= 1
c351: x35 + x120 + x124 + x132 + x72 + x121 + x73 + x65 <= 1
c352: x35 + x122 + x126 + x134 + x74 + x121 + x73 + x135 <= 1
c353: x36 + x72 + x92 + x124 + x76 + x80 + x77 + x136 <= 1
c354: x36 + x81 + x94 + x126 + x78 + x82 + x77 + x39 + x40 <= 1
c355: x36 + x88 + x92 + x76 + x96 + x93 + x77 + x136 <= 1
c356: x36 + x90 + x94 + x78 + x98 + x93 + x77 + x43 <= 1
c357: x36 + x120 + x124 + x76 + x128 + x125 + x77 + x66 <= 1
c358: x36 + x122 + x126 + x78 + x130 + x125 + x77 + x136 <= 1
c359: x37 + x75 + x91 + x123 + x79 + x76 + x78 + x137 <= 1
c360: x37 + x80 + x99 + x131 + x84 + x83 + x79 + x38 <= 1
c361: x37 + x86 + x102 + x99 + x83 + x95 + x79 + x82 + x98 + x44 + x47 + x40 <= 1
c362: x37 + x92 + x100 + x96 + x80 + x95 + x79 + x45 + x38 + x44 <= 1
c363: x37 + x94 + x91 + x92 + x75 + x95 + x79 + x137 <= 1
c364: x37 + x124 + x123 + x126 + x75 + x127 + x79 + x67 <= 1
c365: x37 + x132 + x131 + x134 + x83 + x127 + x79 + x67 <= 1
c366: x38 + x75 + x91 + x123 + x76 + x80 + x138 + x79 <= 1
c367: x38 + x77 + x124 + x92 + x81 + x76 + x80 + x138 <= 1
c368: x38 + x128 + x131 + x132 + x84 + x133 + x80 + x68 <= 1
c369: x39 + x76 + x84 + x97 + x129 + x81 + x80 + x139 <= 1
c370: x39 + x86 + x102 + x134 + x81 + x85 + x82 + x139 <= 1
c371: x39 + x92 + x100 + x97 + x96 + x81 + x46 + x80 + x45 + x38 <= 1
c372: x39 + x124 + x126 + x125 + x129 + x81 + x77 + x69 + x66 + x36 <= 1
c373: x39 + x132 + x100 + x84 + x85 + x81 + x80 + x139 <= 1
c374: x39 + x133 + x134 + x86 + x130 + x129 + x85 + x82 + x81 + x69 + x70 + x41 + x71 + x40 <= 1
c375: x40 + x75 + x91 + x123 + x78 + x82 + x140 + x79 <= 1
c376: x40 + x131 + x99 + x86 + x83 + x82 + x79 + x140 <= 1
c377: x41 + x72 + x88 + x120 + x84 + x85 + x73 + x141 <= 1
c378: x41 + x80 + x100 + x132 + x84 + x72 + x85 + x141 <= 1
c379: x41 + x90 + x122 + x86 + x74 + x85 + x73 + x141 <= 1
c380: x42 + x72 + x100 + x88 + x92 + x104 + x89 + x142 <= 1
c381: x42 + x76 + x88 + x108 + x92 + x93 + x89 + x142 <= 1
c382: x42 + x78 + x94 + x90 + x110 + x93 + x89 + x142 <= 1
c383: x42 + x84 + x100 + x88 + x101 + x116 + x89 + x48 <= 1
c384: x42 + x86 + x102 + x90 + x118 + x101 + x89 + x142 <= 1
c385: x42 + x105 + x109 + x117 + x90 + x106 + x51 + x52 + x89 <= 1
c386: x43 + x72 + x88 + x92 + x104 + x93 + x143 + x89 <= 1
c387: x43 + x73 + x94 + x105 + x90 + x93 + x143 + x89 <= 1
c388: x43 + x74 + x94 + x106 + x90 + x93 + x143 + x89 <= 1
c389: x43 + x76 + x88 + x108 + x92 + x96 + x93 + x143 <= 1
c390: x43 + x112 + x113 + x114 + x109 + x97 + x93 + x46 + x59 + x55 <= 1
c391: x44 + x75 + x91 + x94 + x92 + x107 + x95 + x144 <= 1
c392: x44 + x76 + x91 + x108 + x92 + x96 + x95 + x45 <= 1
c393: x44 + x78 + x91 + x94 + x110 + x98 + x95 + x144 <= 1
c394: x44 + x84 + x99 + x100 + x83 + x96 + x95 + x80 + x79 + x45 + x37 + x38 <= 1
c395: x44 + x112 + x99 + x114 + x91 + x111 + x57 + x95 <= 1
c396: x45 + x75 + x91 + x92 + x107 + x96 + x145 + x95 <= 1
c397: x45 + x77 + x109 + x92 + x97 + x96 + x93 + x145 <= 1
c398: x45 + x85 + x117 + x100 + x101 + x97 + x96 + x46 + x48 <= 1
c399: x45 + x112 + x113 + x100 + x117 + x116 + x101 + x97 + x62 + x96 + x58 + x63 + x59 + x46 + x48 <= 1
c400: x46 + x76 + x92 + x108 + x146 + x97 + x93 + x96 <= 1
c401: x46 + x77 + x94 + x109 + x92 + x146 + x97 + x93 <= 1
c402: x46 + x78 + x110 + x94 + x98 + x97 + x146 + x93 <= 1
c403: x46 + x84 + x100 + x116 + x101 + x96 + x146 + x97 <= 1
c404: x46 + x86 + x102 + x118 + x101 + x98 + x97 + x146 <= 1
c405: x47 + x75 + x94 + x91 + x107 + x147 + x98 + x95 <= 1
c406: x47 + x77 + x109 + x94 + x98 + x147 + x93 + x97 <= 1
c407: x47 + x78 + x110 + x94 + x91 + x98 + x93 + x147 <= 1
c408: x47 + x85 + x102 + x117 + x101 + x98 + x147 + x97 <= 1
c409: x47 + x113 + x102 + x114 + x94 + x111 + x60 + x98 <= 1
c410: x48 + x72 + x88 + x104 + x100 + x101 + x148 + x89 <= 1
c411: x48 + x73 + x88 + x90 + x105 + x101 + x148 + x89 <= 1
c412: x48 + x74 + x102 + x90 + x106 + x101 + x89 + x148 <= 1
c413: x48 + x86 + x102 + x90 + x118 + x101 + x89 + x148 <= 1
c414: x49 + x51 + x120 + x122 <= 1
c415: x49 + x54 + x87 + x103 + x119 + x104 + x108 + x107 + x53 + x50 <= 1
c416: x49 + x56 + x123 + x126 + x103 + x119 + x122 + x110 + x106 + x107 + x53 + x52 <= 1
c417: x49 + x57 + x131 + x132 + x134 + x115 + x61 <= 1
c418: x49 + x64 + x87 + x99 + x103 + x102 + x90 + x115 + x118 + x106 + x61 + x52 <= 1
c419: x49 + x88 + x120 + x149 + x103 + x104 + x116 + x108 <= 1
c420: x49 + x91 + x123 + x149 + x110 + x103 + x108 + x107 <= 1
c421: x49 + x92 + x124 + x104 + x103 + x149 + x108 + x107 <= 1
c422: x49 + x94 + x126 + x110 + x103 + x149 + x106 + x107 <= 1
c423: x49 + x100 + x132 + x115 + x104 + x116 + x50 + x103 + x62 + x61 <= 1
c424: x50 + x88 + x120 + x105 + x109 + x117 + x150 + x104 <= 1
c425: x50 + x89 + x87 + x92 + x88 + x100 + x150 + x104 <= 1
c426: x50 + x91 + x123 + x108 + x53 + x54 + x103 + x104 + x107 + x49 <= 1
c427: x50 + x99 + x131 + x115 + x116 + x103 + x61 + x104 + x62 + x49 <= 1
c428: x50 + x101 + x105 + x88 + x117 + x100 + x116 + x51 + x63 + x89 + x104 + x62 + x42 + x48 <= 1
c429: x50 + x121 + x119 + x124 + x132 + x120 + x150 + x104 <= 1
c430: x51 + x92 + x124 + x105 + x109 + x151 + x108 + x104 <= 1
c431: x51 + x94 + x126 + x110 + x105 + x109 + x151 + x106 <= 1
c432: x51 + x102 + x134 + x118 + x117 + x105 + x106 + x151 <= 1
c433: x51 + x121 + x122 + x125 + x120 + x133 + x105 + x65 <= 1
c434: x51 + x132 + x134 + x121 + x117 + x133 + x65 + x63 + x105 + x71 <= 1
c435: x52 + x91 + x123 + x152 + x110 + x106 + x103 + x107 <= 1
c436: x52 + x94 + x126 + x109 + x110 + x152 + x106 + x107 <= 1
c437: x52 + x101 + x99 + x90 + x102 + x118 + x106 + x152 <= 1
c438: x52 + x131 + x119 + x122 + x123 + x106 + x103 + x152 <= 1
c439: x52 + x134 + x131 + x119 + x122 + x115 + x118 + x61 + x103 + x106 + x64 + x49 <= 1
c440: x53 + x88 + x120 + x153 + x108 + x107 + x103 + x104 <= 1
c441: x53 + x90 + x87 + x94 + x91 + x110 + x153 + x106 + x103 + x107 <= 1
c442: x53 + x92 + x124 + x111 + x112 + x108 + x54 + x58 + x57 + x107 <= 1
c443: x53 + x95 + x114 + x127 + x111 + x112 + x153 + x107 <= 1
c444: x53 + x96 + x128 + x111 + x112 + x108 + x58 + x54 + x57 + x107 <= 1
c445: x54 + x88 + x120 + x109 + x154 + x108 + x105 + x104 <= 1
c446: x54 + x89 + x87 + x88 + x92 + x154 + x108 + x104 <= 1
c447: x54 + x97 + x113 + x129 + x109 + x112 + x59 + x108 + x55 + x58 <= 1
c448: x54 + x127 + x123 + x128 + x124 + x111 + x68 + x112 + x67 + x58 + x57 + x108 + x107 + x53 <= 1
c449: x55 + x88 + x120 + x155 + x109 + x104 + x105 + x108 <= 1
c450: x55 + x90 + x122 + x110 + x109 + x155 + x106 + x105 <= 1
c451: x55 + x92 + x113 + x124 + x109 + x112 + x59 + x58 + x108 + x54 <= 1
c452: x55 + x94 + x114 + x113 + x126 + x110 + x109 + x60 + x59 + x56 <= 1
c453: x56 + x87 + x119 + x156 + x110 + x106 + x103 + x107 <= 1
c454: x56 + x90 + x87 + x156 + x91 + x110 + x94 + x106 + x103 + x107 <= 1
c455: x56 + x121 + x125 + x126 + x122 + x109 + x110 + x156 + x106 + x105 <= 1
c456: x57 + x94 + x114 + x126 + x157 + x111 + x110 + x107 <= 1
c457: x57 + x100 + x132 + x115 + x157 + x116 + x111 + x112 <= 1
c458: x57 + x102 + x114 + x134 + x118 + x115 + x157 + x111 <= 1
c459: x57 + x130 + x131 + x114 + x123 + x127 + x70 + x60 + x67 + x111 <= 1
c460: x58 + x60 + x113 + x125 + x129 + x133 + x69 + x59 <= 1
c461: x58 + x91 + x99 + x158 + x95 + x112 + x96 + x111 <= 1
c462: x58 + x131 + x132 + x128 + x127 + x115 + x116 + x61 + x68 + x112 + x67 + x62 + x111 + x57 <= 1
c463: x59 + x102 + x113 + x134 + x114 + x117 + x159 + x118 <= 1
c464: x59 + x130 + x125 + x113 + x114 + x126 + x129 + x69 + x109 + x110 + x70 + x66 + x60 + x55 + x56 <= 1
c465: x59 + x132 + x113 + x134 + x117 + x133 + x129 + x159 <= 1
c466: x60 + x91 + x99 + x114 + x160 + x95 + x98 + x111 <= 1
c467: x60 + x134 + x113 + x114 + x126 + x130 + x160 + x129 <= 1
c468: x61 + x88 + x120 + x161 + x115 + x116 + x103 + x104 <= 1
c469: x61 + x95 + x87 + x99 + x161 + x100 + x102 + x115 <= 1
c470: x61 + x96 + x99 + x100 + x161 + x116 + x88 + x115 <= 1
c471: x61 + x98 + x114 + x99 + x102 + x118 + x161 + x95 + x115 + x111 <= 1
c472: x62 + x87 + x119 + x162 + x116 + x103 + x104 + x115 <= 1
c473: x62 + x120 + x131 + x119 + x132 + x162 + x104 + x116 + x103 + x115 <= 1
c474: x63 + x90 + x122 + x117 + x163 + x118 + x106 + x105 <= 1
c475: x63 + x102 + x113 + x114 + x134 + x117 + x118 + x163 <= 1
c476: x63 + x120 + x132 + x121 + x133 + x117 + x65 + x71 + x104 + x116 + x105 + x50 + x51 + x62 <= 1
c477: x63 + x129 + x113 + x132 + x128 + x117 + x68 + x69 + x133 + x112 + x71 + x116 + x58 + x59 + x62 <= 1
c478: x64 + x95 + x164 + x127 + x114 + x118 + x115 + x111 <= 1
c479: x64 + x98 + x164 + x113 + x130 + x114 + x118 + x117 <= 1
c480: x64 + x101 + x99 + x164 + x114 + x102 + x106 + x118 <= 1
c481: x64 + x121 + x119 + x122 + x134 + x164 + x118 + x106 <= 1
c482: x64 + x129 + x113 + x134 + x114 + x130 + x133 + x69 + x118 + x117 + x70 + x71 + x59 + x60 + x63 <= 1
c483: x65 + x69 + x84 + x86 + x85 + x133 + x71 + x41 <= 1
c484: x65 + x74 + x78 + x165 + x125 + x126 + x122 + x77 + x73 + x121 <= 1
c485: x65 + x76 + x72 + x84 + x165 + x120 + x73 + x121 <= 1
c486: x66 + x72 + x74 + x166 + x125 + x77 + x73 + x121 <= 1
c487: x66 + x78 + x81 + x82 + x125 + x166 + x126 + x77 + x130 + x129 <= 1
c488: x66 + x108 + x124 + x76 + x125 + x120 + x128 + x166 <= 1
c489: x66 + x122 + x74 + x78 + x125 + x77 + x126 + x166 + x73 + x121 <= 1
c490: x67 + x69 + x86 + x84 <= 1
c491: x67 + x76 + x75 + x167 + x123 + x78 + x79 + x127 <= 1
c492: x67 + x80 + x83 + x75 + x82 + x79 + x127 + x167 <= 1
c493: x68 + x75 + x83 + x168 + x79 + x80 + x128 + x127 <= 1
c494: x68 + x76 + x81 + x84 + x80 + x79 + x168 + x128 <= 1
c495: x68 + x77 + x75 + x124 + x80 + x76 + x128 + x168 <= 1
c496: x68 + x85 + x83 + x84 + x132 + x80 + x128 + x168 <= 1
c497: x68 + x109 + x113 + x124 + x125 + x112 + x128 + x69 + x108 + x129 + x54 + x55 + x58 + x59 + x66 <= 1
c498: x69 + x76 + x169 + x84 + x81 + x80 + x128 + x129 <= 1
c499: x69 + x78 + x86 + x82 + x81 + x130 + x169 + x129 <= 1
c500: x70 + x75 + x83 + x170 + x82 + x130 + x127 + x79 <= 1
c501: x70 + x78 + x123 + x170 + x125 + x82 + x126 + x130 <= 1
c502: x71 + x72 + x74 + x171 + x133 + x73 + x85 + x121 <= 1
c503: x71 + x122 + x86 + x74 + x134 + x171 + x85 + x121 + x73 + x133 <= 1
c504: x72 + x75 + x83 + x119 + x74 + x87 <= 1
c505: x72 + x91 + x93 + x80 + x92 + x76 <= 1
c506: x72 + x99 + x131 + x84 + x83 + x80 <= 1
c507: x72 + x123 + x131 + x119 + x120 + x104 <= 1
c508: x73 + x81 + x84 + x132 + x100 + x85 + x141 + x41 <= 1
c509: x73 + x136 + x124 + x81 + x125 + x126 + x77 + x166 <= 1
c510: x73 + x142 + x84 + x86 + x135 + x165 + x85 + x141 <= 1
c511: x74 + x82 + x131 + x83 + x99 + x86 <= 1
c512: x74 + x91 + x93 + x82 + x94 + x78 <= 1
c513: x74 + x123 + x131 + x119 + x106 + x122 <= 1
c514: x74 + x136 + x93 + x125 + x82 + x77 + x78 + x36 <= 1
c515: x74 + x142 + x86 + x90 + x89 + x102 + x135 + x148 + x101 + x85 + x141 + x73 <= 1
c516: x75 + x88 + x83 + x87 + x90 <= 1
c517: x75 + x120 + x124 + x119 + x123 + x76 + x72 <= 1
c518: x75 + x122 + x83 + x119 + x120 <= 1
c519: x76 + x87 + x84 + x119 + x72 <= 1
c520: x76 + x144 + x137 + x145 + x138 + x84 + x80 + x79 + x96 + x95 <= 1
c521: x77 + x85 + x81 + x139 + x170 + x140 + x147 + x82 <= 1
c522: x77 + x89 + x93 + x143 + x94 + x92 + x97 + x109 + x43 <= 1
c523: x77 + x169 + x124 + x81 + x125 + x126 + x139 + x136 + x166 + x129 <= 1
c524: x78 + x87 + x86 + x119 + x74 <= 1
c525: x78 + x135 + x93 + x125 + x139 + x136 + x76 + x77 <= 1
c526: x78 + x143 + x81 + x93 + x94 + x146 + x140 + x147 + x82 + x97 + x136 + x98 + x139 + x77 <= 1
c527: x79 + x111 + x131 + x132 + x134 + x167 + x127 + x67 <= 1
c528: x79 + x147 + x137 + x99 + x83 + x86 + x144 + x102 + x140 + x82 + x95 + x98 <= 1
c529: x80 + x101 + x100 + x138 + x99 + x145 + x84 + x96 <= 1
c530: x80 + x112 + x131 + x132 + x127 + x167 + x128 + x168 <= 1
c531: x80 + x125 + x124 + x123 + x138 + x128 + x168 + x76 <= 1
c532: x80 + x143 + x92 + x93 + x81 + x138 + x146 + x145 + x96 + x97 + x136 + x139 + x76 + x77 <= 1
c533: x80 + x166 + x124 + x125 + x81 + x128 + x138 + x169 + x129 + x136 + x76 + x77 + x139 + x168 <= 1
c534: x81 + x101 + x113 + x100 + x148 + x146 + x145 + x96 + x97 <= 1
c535: x81 + x171 + x132 + x134 + x113 + x133 + x169 + x129 <= 1
c536: x82 + x101 + x114 + x93 + x146 + x97 + x98 + x147 <= 1
c537: x83 + x115 + x131 + x132 + x134 + x127 + x167 + x67 <= 1
c538: x83 + x138 + x131 + x132 + x127 + x137 + x167 + x84 + x128 + x79 + x80 + x168 <= 1
c539: x83 + x145 + x100 + x137 + x99 + x84 + x95 + x96 + x144 + x79 + x80 + x138 <= 1
c540: x84 + x148 + x100 + x88 + x89 + x142 + x135 + x101 + x85 + x141 + x72 + x73 <= 1
c541: x84 + x171 + x165 + x132 + x120 + x121 + x133 + x135 + x85 + x141 + x72 + x73 <= 1
c542: x85 + x146 + x100 + x117 + x142 + x148 + x101 + x102 <= 1
c543: x86 + x127 + x131 + x134 + x170 + x130 + x167 + x118 <= 1
c544: x87 + x149 + x154 + x150 + x153 + x92 + x103 + x88 + x91 + x104 + x107 + x108 <= 1
c545: x87 + x152 + x149 + x161 + x106 + x153 + x90 + x103 <= 1
c546: x87 + x164 + x149 + x162 + x161 + x119 + x103 + x115 <= 1
c547: x88 + x151 + x149 + x100 + x162 + x150 + x104 + x116 <= 1
c548: x88 + x163 + x155 + x151 + x150 + x89 + x105 + x104 + x142 <= 1
c549: x89 + x121 + x155 + x110 + x151 + x156 + x106 + x105 + x109 + x152 <= 1
c550: x89 + x164 + x151 + x106 + x156 + x90 + x105 + x142 + x152 <= 1
c551: x90 + x136 + x155 + x93 + x94 + x143 + x98 <= 1
c552: x91 + x157 + x123 + x149 + x110 + x153 + x156 + x107 <= 1
c553: x92 + x155 + x124 + x113 + x158 + x159 + x154 + x109 + x112 + x108 <= 1
c554: x92 + x157 + x149 + x124 + x153 + x154 + x107 + x108 <= 1
c555: x93 + x150 + x125 + x151 + x154 + x155 + x104 + x105 + x109 + x108 <= 1
c556: x93 + x152 + x160 + x110 + x156 + x94 + x109 + x143 + x155 <= 1
c557: x94 + x135 + x126 + x151 <= 1
c558: x94 + x159 + x113 + x126 + x110 + x114 + x160 + x155 + x156 + x109 <= 1
c559: x95 + x97 + x158 + x160 <= 1
c560: x95 + x116 + x127 + x158 + x161 + x162 + x112 + x115 + x157 + x111 <= 1
c561: x96 + x98 + x113 + x163 + x101 + x117 + x148 + x159 + x97 + x146 <= 1
c562: x96 + x153 + x158 + x161 + x112 + x128 + x157 + x111 <= 1
c563: x97 + x155 + x113 + x158 + x160 + x163 + x129 + x159 <= 1
c564: x98 + x156 + x113 + x130 + x160 + x110 + x114 + x109 + x159 + x155 <= 1
c565: x99 + x149 + x131 + x106 + x161 + x115 + x103 + x104 <= 1
c566: x99 + x150 + x131 + x158 + x162 + x115 + x161 + x116 <= 1
c567: x99 + x157 + x160 + x158 + x115 + x131 + x161 + x111 <= 1
c568: x100 + x158 + x113 + x132 + x112 + x162 + x163 + x117 + x159 + x116 <= 1
c569: x101 + x133 + x113 + x160 + x114 + x117 + x118 + x159 + x163 + x164 <= 1
c570: x101 + x162 + x113 + x105 + x117 + x133 + x116 + x163 <= 1
c571: x102 + x149 + x134 + x151 + x106 + x118 + x152 + x164 <= 1
c572: x102 + x160 + x134 + x113 + x114 + x117 + x118 + x159 + x163 + x164 <= 1
c573: x103 + x105 + x134 + x122 + x126 + x106 + x52 + x152 <= 1
c574: x103 + x111 + x134 + x126 <= 1
c575: x104 + x112 + x123 + x124 + x153 + x107 + x154 + x108 <= 1
c576: x106 + x133 + x165 + x134 + x122 + x151 + x117 + x118 + x121 + x163 + x164 + x171 + x105 + x152 <= 1
c577: x106 + x166 + x110 + x126 + x165 + x122 + x151 + x109 + x121 + x125 + x105 + x152 + x155 + x156 <= 1
c578: x107 + x115 + x127 + x130 + x114 + x160 + x170 + x167 + x157 + x111 <= 1
c579: x108 + x121 + x119 + x120 + x124 + x150 + x154 + x104 <= 1
c580: x109 + x142 + x151 + x110 + x143 + x89 + x90 + x93 + x94 + x105 + x106 + x152 + x155 + x156 <= 1
c581: x110 + x118 + x113 + x114 + x170 + x129 + x130 + x160 + x159 + x169 <= 1
c582: x110 + x127 + x126 + x114 + x123 + x153 + x130 + x160 + x167 + x170 + x107 + x111 + x156 + x157 <= 1
c583: x112 + x148 + x113 + x114 + x117 + x159 + x163 + x171 <= 1
c584: x113 + x143 + x114 + x147 + x159 + x160 + x93 + x94 + x97 + x98 + x109 + x110 + x146 + x155 + x156 <= 1
c585: x113 + x166 + x124 + x125 + x126 + x129 + x159 + x169 + x109 + x155 <= 1
c586: x114 + x144 + x161 + x153 + x160 + x167 + x23 + x157 <= 1
c587: x115 + x117 + x134 + x122 + x130 + x118 + x164 + x64 <= 1
c588: x116 + x118 + x127 + x161 + x119 + x131 + x61 + x115 <= 1
c589: x117 + x145 + x158 + x159 + x162 + x163 + x26 + x146 + x148 <= 1
c590: x119 + x153 + x120 + x122 + x161 + x149 + x103 <= 1
c591: x120 + x136 + x124 + x125 + x128 + x36 + x76 + x77 <= 1
c592: x120 + x151 + x124 + x132 + x165 + x121 + x150 + x104 + x105 <= 1
c593: x120 + x163 + x128 + x132 + x161 + x162 + x116 <= 1
c594: x121 + x129 + x134 + x126 <= 1
c595: x123 + x150 + x124 + x125 + x158 + x108 + x154 <= 1
c596: x124 + x137 + x126 + x127 + x167 + x75 + x79 + x123 <= 1
c597: x125 + x160 + x140 + x130 + x170 + x126 + x129 + x169 + x166 <= 1
c598: x127 + x129 + x134 + x140 + x170 + x130 + x82 + x86 <= 1
c599: x128 + x130 + x137 + x131 + x37 + x79 + x83 + x127 <= 1
c600: x131 + x164 + x134 + x170 + x133 + x114 + x118 + x130 + x160 <= 1
c601: x132 + x149 + x134 + x151 <= 1
c602: x134 + x137 + x170 + x79 + x82 + x83 + x86 + x127 + x130 + x131 + x140 + x167 <= 1
c603: x134 + x141 + x165 + x169 + x85 + x86 + x133 + x171 <= 1
c604: x134 + x161 + x61 + x102 + x103 + x106 + x115 + x118 <= 1
c605: x151 + x159 + x7 + x12 <= 1

binaries
    x1
    x2
    x3
    x4
    x5
    x6
    x7
    x8
    x9
    x10
    x11
    x12
    x13
    x14
    x15
    x16
    x17
    x18
    x19
    x20
    x21
    x22
    x23
    x24
    x25
    x26
    x27
    x28
    x29
    x30
    x31
    x32
    x33
    x34
    x35
    x36
    x37
    x38
    x39
    x40
    x41
    x42
    x43
    x44
    x45
    x46
    x47
    x48
    x49
    x50
    x51
    x52
    x53
    x54
    x55
    x56
    x57
    x58
    x59
    x60
    x61
    x62
    x63
    x64
    x65
    x66
    x67
    x68
    x69
    x70
    x71
    x72
    x73
    x74
    x75
    x76
    x77
    x78
    x79
    x80
    x81
    x82
    x83
    x84
    x85
    x86
    x87
    x88
    x89
    x90
    x91
    x92
    x93
    x94
    x95
    x96
    x97
    x98
    x99
    x100
    x101
    x102
    x103
    x104
    x105
    x106
    x107
    x108
    x109
    x110
    x111
    x112
    x113
    x114
    x115
    x116
    x117
    x118
    x119
    x120
    x121
    x122
    x123
    x124
    x125
    x126
    x127
    x128
    x129
    x130
    x131
    x132
    x133
    x134
    x135
    x136
    x137
    x138
    x139
    x140
    x141
    x142
    x143
    x144
    x145
    x146
    x147
    x148
    x149
    x150
    x151
    x152
    x153
    x154
    x155
    x156
    x157
    x158
    x159
    x160
    x161
    x162
    x163
    x164
    x165
    x166
    x167
    x168
    x169
    x170
    x171


END
